NAME : eil51.out.tour
COMMENT : Tour for eil51.tsp (460)
TYPE: TOUR
DIMENSION: 51
TOUR_SELECTION
39
10
30
34
21
29
50
49
9
5
38
11
16
2
36
35
20
3
28
31
26
8
23
7
43
24
6
48
27
22
1
32
51
46
12
47
4
18
14
25
13
41
40
19
42
17
37
15
44
45
33
-1
EOF
